1265079
15,24,82,2,62,19,43,42,84,60,31,94,5,29,102,55,73,91,3,66,78,22,14,52,16,79,47,20,99,57,53,101,104,86,72,18,61,95,92,12,107,41,59,105,77,32,54,67,39,7,27,35,11,64,87,6,17,49,75,98,70,46,96,30,38,13,69,68,26,85,74,56,71,25,36,8,76,65,37,40,48,10,88,90,103,21,63,9,108,23,89,44,4,0,34,97,100,81,33,51,28,45,58,83,50,1,80,93,106
